language ESSENCE' 1.0

letting jobs = 102
letting horizon = 786
letting resourcesRenew = 2
letting resourcesNonrenew = 2
letting resourceLimits = [70, 68, 554, 580]
letting successors = [[2, 3, 4, 5, 6, 7, 8, 9, 10, 11, 12, 13, 16, 17, 18, 19, 20, 21, 22, 24, 28, 29, 32, 35, 42], [94, 60, 56, 55, 52, 47, 45, 44, 43, 41, 36, 15, 14], [100, 99, 93, 88, 72, 71, 70, 69, 66, 64, 63, 62, 61, 58, 57, 52, 51, 50, 49, 47, 45, 37, 27], [101, 100, 98, 97, 94, 71, 70, 68, 67, 66, 64, 62, 61, 57, 56, 50, 49, 46, 45, 38, 34, 25], [99, 98, 86, 72, 69, 67, 65, 64, 62, 60, 54, 53, 49, 48, 46, 44, 41, 37, 36, 33], [101, 100, 92, 70, 68, 67, 66, 58, 57, 56, 55, 49, 47, 45, 44, 41, 31, 26], [99, 98, 97, 71, 70, 66, 64, 62, 61, 60, 51, 44, 41, 37, 23], [100, 99, 98, 97, 96, 94, 92, 91, 85, 84, 72, 71, 68, 67, 66, 65, 63, 61, 59, 58, 53, 46, 30], [99, 96, 86, 71, 70, 68, 66, 65, 64, 63, 60, 55, 48, 46, 23], [100, 99, 98, 91, 89, 88, 85, 84, 83, 82, 71, 70, 69, 64, 61, 59, 58, 55, 54, 50, 49, 45, 40], [95, 94, 90, 89, 69, 68, 66, 65, 64, 59, 57, 56, 55, 50, 47, 46, 44, 41], [100, 99, 98, 97, 96, 94, 93, 92, 91, 89, 88, 85, 84, 79, 68, 63, 58, 55, 50, 39], [101, 99, 92, 91, 90, 89, 87, 83, 74, 71, 69, 68, 65, 64, 63, 62, 57, 56, 50, 49, 46], [99, 98, 97, 96, 95, 93, 91, 82, 70, 69, 67, 65, 64, 61, 57, 50, 49, 48], [100, 95, 92, 91, 89, 86, 83, 81, 80, 74, 72, 71, 68, 67, 64, 61, 59, 57, 54, 46], [98, 96, 94, 93, 90, 89, 86, 72, 67, 65, 63, 62, 57, 55, 49, 34], [99, 92, 90, 84, 65, 56, 53, 50, 49, 44, 37], [99, 98, 93, 92, 90, 87, 86, 83, 82, 81, 80, 78, 72, 65, 64, 63, 56, 55, 51, 47], [100, 92, 91, 90, 89, 87, 86, 85, 84, 80, 69, 66, 65, 64, 62, 59, 56, 55, 51, 49], [99, 98, 91, 90, 89, 88, 83, 82, 72, 66, 65, 64, 60, 57, 55, 50, 49], [98, 97, 93, 92, 90, 89, 83, 82, 78, 72, 70, 69, 66, 64, 63, 57, 50], [95, 93, 90, 85, 84, 83, 82, 78, 70, 64, 56, 55, 54, 50], [94, 93, 91, 89, 82, 80, 67, 58, 57, 56, 52, 49], [95, 93, 91, 86, 85, 80, 70, 67, 59, 55, 40], [96, 93, 92, 91, 90, 89, 88, 86, 85, 84, 83, 82, 81, 80, 79, 77, 55, 54], [93, 90, 89, 88, 86, 85, 84, 83, 80, 78, 64, 54, 52, 51], [95, 92, 90, 86, 85, 84, 79, 78, 77, 68, 67, 65, 55, 44], [93, 91, 87, 86, 84, 83, 82, 81, 78, 70, 66, 64, 63, 55], [100, 92, 88, 86, 85, 83, 82, 80, 79, 73, 69, 66, 49], [95, 89, 88, 86, 83, 80, 64, 55, 45], [98, 97, 93, 88, 86, 83, 82, 81, 78, 77, 74, 72, 65, 63], [93, 90, 87, 86, 84, 81, 64, 63, 55, 51], [97, 90, 84, 83, 82, 80, 78, 76, 75, 73, 71, 56], [92, 91, 88, 84, 82, 81, 80, 79, 76, 75, 74, 73, 69], [96, 94, 89, 84, 83, 82, 81, 80, 78, 77, 75, 74, 67], [84, 83, 81, 79, 78, 77, 76, 75, 73, 68, 66], [94, 89, 87, 85, 82, 81, 80, 79, 77, 55], [99, 95, 91, 89, 87, 85, 83, 81, 80, 79, 77, 74], [83, 82, 80, 78, 76, 74, 73, 64, 61], [97, 96, 94, 92, 87, 81, 79, 78, 74, 73], [88, 87, 81, 80, 78, 76, 75, 63], [84, 83, 82, 81, 80, 78, 76, 73], [98, 88, 85, 83, 77, 74, 63], [96, 91, 83, 80, 76, 74, 73], [87, 79, 78, 76, 75, 74, 73], [93, 82, 79, 76, 75, 73], [97, 85, 84, 76, 75, 73], [89, 85, 83, 78, 76, 74], [81, 78, 76, 75], [86, 81, 80, 76], [94, 79, 77, 74], [87, 79, 74, 73], [95, 87, 81, 74], [76, 75, 63], [75, 74, 73], [88, 79, 77], [85, 84, 79], [95, 87, 78], [78, 77, 76], [92, 85, 80], [90, 75], [82, 75], [73], [77], [73], [74], [73], [82], [77], [76], [77], [75], [102], [102], [102], [102], [102], [102], [102], [102], [102], [102], [102], [102], [102], [102], [102], [102], [102], [102], [102], [102], [102], [102], [102], [102], [102], [102], [102], [102], [102], []]
letting durations = [[0], [5, 9, 10], [1, 1, 2], [5, 6, 7], [1, 1, 5], [2, 8, 9], [3, 4, 7], [2, 4, 5], [1, 3, 10], [1, 4, 7], [6, 8, 10], [5, 7, 8], [2, 5, 8], [2, 5, 8], [1, 3, 4], [7, 10, 10], [3, 4, 7], [4, 4, 5], [6, 7, 10], [5, 6, 9], [5, 5, 6], [2, 5, 7], [1, 2, 3], [7, 7, 10], [2, 8, 9], [1, 4, 6], [4, 4, 9], [4, 8, 8], [3, 7, 7], [4, 6, 9], [4, 8, 10], [2, 7, 10], [1, 3, 4], [3, 7, 8], [4, 6, 8], [2, 5, 10], [3, 5, 10], [2, 6, 8], [3, 9, 10], [4, 6, 7], [5, 6, 9], [3, 8, 9], [3, 6, 9], [2, 7, 8], [2, 8, 9], [6, 7, 7], [1, 2, 3], [6, 7, 9], [1, 4, 7], [1, 6, 10], [1, 4, 10], [1, 5, 8], [4, 7, 8], [7, 9, 9], [4, 4, 5], [3, 5, 8], [4, 6, 10], [2, 4, 6], [2, 7, 9], [3, 6, 8], [2, 3, 10], [2, 7, 9], [2, 7, 8], [2, 7, 8], [8, 9, 10], [2, 3, 6], [3, 9, 9], [2, 4, 9], [1, 3, 5], [6, 7, 10], [2, 3, 7], [1, 3, 9], [2, 6, 9], [5, 7, 8], [1, 2, 10], [3, 6, 10], [3, 5, 10], [2, 8, 9], [1, 2, 9], [3, 4, 5], [5, 8, 9], [1, 5, 5], [1, 1, 8], [6, 7, 7], [3, 4, 5], [3, 5, 7], [6, 8, 9], [1, 1, 4], [5, 6, 7], [3, 7, 10], [2, 3, 9], [3, 6, 7], [1, 2, 8], [1, 2, 7], [1, 5, 8], [1, 2, 6], [1, 3, 6], [1, 4, 10], [2, 3, 6], [2, 3, 7], [2, 8, 10], [0]]
letting resourceUsage = [[[0, 0, 0, 0]], [[0, 5, 9, 2], [0, 5, 4, 3], [0, 5, 4, 2]], [[0, 7, 4, 8], [0, 6, 3, 9], [0, 6, 3, 8]], [[0, 8, 4, 5], [0, 6, 4, 4], [9, 0, 2, 2]], [[0, 7, 4, 10], [1, 0, 4, 9], [1, 0, 2, 9]], [[8, 0, 7, 4], [0, 5, 6, 4], [2, 0, 6, 2]], [[0, 7, 6, 8], [0, 7, 5, 5], [0, 7, 4, 4]], [[7, 0, 5, 7], [3, 0, 3, 6], [1, 0, 3, 4]], [[0, 7, 9, 4], [4, 0, 9, 3], [2, 0, 9, 2]], [[0, 6, 8, 8], [9, 0, 7, 8], [9, 0, 7, 6]], [[0, 9, 7, 9], [2, 0, 7, 8], [0, 7, 6, 7]], [[0, 6, 8, 8], [0, 5, 8, 3], [0, 1, 8, 2]], [[0, 9, 8, 8], [0, 4, 7, 7], [6, 0, 7, 4]], [[4, 0, 6, 3], [4, 0, 6, 2], [0, 5, 5, 2]], [[10, 0, 9, 3], [0, 6, 4, 2], [0, 5, 4, 2]], [[0, 2, 9, 3], [3, 0, 8, 3], [0, 2, 7, 2]], [[5, 0, 9, 8], [3, 0, 8, 6], [3, 0, 8, 4]], [[0, 3, 1, 10], [4, 0, 1, 8], [3, 0, 1, 5]], [[7, 0, 10, 7], [6, 0, 6, 5], [0, 6, 6, 4]], [[8, 0, 10, 9], [6, 0, 8, 7], [0, 7, 4, 6]], [[0, 10, 8, 6], [6, 0, 7, 3], [0, 9, 7, 3]], [[9, 0, 8, 7], [8, 0, 5, 6], [4, 0, 3, 6]], [[0, 7, 5, 9], [3, 0, 2, 5], [0, 4, 1, 5]], [[7, 0, 7, 5], [0, 4, 5, 4], [0, 4, 5, 1]], [[0, 3, 8, 9], [5, 0, 6, 9], [5, 0, 6, 8]], [[4, 0, 5, 3], [4, 0, 4, 2], [0, 1, 3, 2]], [[0, 3, 5, 7], [2, 0, 5, 5], [2, 0, 5, 3]], [[9, 0, 7, 9], [8, 0, 6, 9], [0, 4, 5, 8]], [[0, 6, 1, 6], [0, 6, 1, 4], [1, 0, 1, 3]], [[0, 7, 5, 9], [6, 0, 4, 8], [4, 0, 4, 7]], [[5, 0, 6, 6], [0, 3, 5, 5], [4, 0, 5, 4]], [[9, 0, 6, 8], [0, 5, 3, 7], [9, 0, 2, 7]], [[6, 0, 8, 4], [6, 0, 7, 3], [5, 0, 6, 2]], [[5, 0, 2, 3], [0, 6, 1, 3], [2, 0, 1, 3]], [[5, 0, 5, 6], [5, 0, 4, 5], [0, 3, 4, 4]], [[0, 2, 7, 5], [0, 1, 5, 3], [3, 0, 5, 1]], [[0, 7, 1, 3], [0, 7, 1, 2], [0, 7, 1, 1]], [[10, 0, 9, 8], [8, 0, 9, 3], [0, 9, 9, 1]], [[0, 9, 4, 6], [0, 6, 4, 6], [3, 0, 4, 2]], [[10, 0, 6, 10], [10, 0, 2, 9], [0, 1, 1, 9]], [[0, 10, 5, 6], [5, 0, 4, 6], [5, 0, 4, 4]], [[5, 0, 7, 3], [4, 0, 7, 2], [4, 0, 7, 1]], [[5, 0, 6, 9], [4, 0, 4, 8], [0, 3, 1, 6]], [[0, 5, 2, 5], [6, 0, 2, 5], [0, 5, 2, 4]], [[7, 0, 9, 7], [7, 0, 9, 4], [0, 3, 9, 3]], [[4, 0, 5, 6], [0, 1, 3, 5], [4, 0, 3, 5]], [[3, 0, 6, 8], [0, 2, 6, 7], [0, 2, 6, 6]], [[0, 9, 5, 2], [0, 8, 4, 2], [0, 8, 4, 1]], [[0, 5, 6, 4], [0, 5, 5, 3], [3, 0, 1, 2]], [[0, 9, 2, 5], [0, 5, 2, 4], [0, 4, 2, 4]], [[8, 0, 1, 5], [0, 3, 1, 5], [5, 0, 1, 5]], [[0, 8, 5, 5], [0, 8, 4, 3], [0, 8, 2, 3]], [[6, 0, 10, 9], [6, 0, 10, 8], [5, 0, 10, 9]], [[5, 0, 8, 5], [0, 3, 8, 4], [5, 0, 8, 3]], [[7, 0, 6, 9], [0, 8, 4, 9], [5, 0, 3, 9]], [[9, 0, 5, 6], [0, 6, 3, 4], [9, 0, 3, 4]], [[8, 0, 4, 6], [0, 4, 3, 4], [0, 4, 2, 4]], [[0, 3, 4, 4], [7, 0, 2, 3], [6, 0, 2, 3]], [[0, 5, 5, 6], [6, 0, 3, 5], [5, 0, 3, 5]], [[4, 0, 3, 9], [0, 5, 2, 4], [1, 0, 2, 1]], [[3, 0, 9, 8], [3, 0, 6, 8], [3, 0, 5, 6]], [[5, 0, 5, 8], [5, 0, 4, 6], [0, 5, 4, 5]], [[0, 7, 7, 9], [6, 0, 6, 7], [0, 2, 3, 7]], [[0, 8, 8, 7], [3, 0, 6, 5], [0, 7, 5, 3]], [[0, 4, 9, 3], [6, 0, 8, 2], [3, 0, 5, 2]], [[0, 10, 5, 6], [2, 0, 5, 5], [2, 0, 3, 5]], [[5, 0, 7, 10], [5, 0, 7, 6], [0, 7, 6, 6]], [[5, 0, 5, 1], [0, 8, 3, 1], [4, 0, 3, 1]], [[0, 3, 2, 4], [6, 0, 2, 3], [0, 2, 2, 3]], [[0, 3, 7, 8], [0, 3, 4, 5], [1, 0, 3, 4]], [[0, 5, 5, 7], [0, 5, 4, 3], [0, 5, 2, 3]], [[0, 4, 9, 5], [4, 0, 5, 5], [0, 2, 4, 2]], [[10, 0, 4, 9], [0, 10, 3, 7], [5, 0, 3, 6]], [[0, 8, 2, 6], [5, 0, 1, 6], [0, 5, 1, 6]], [[9, 0, 4, 6], [7, 0, 2, 3], [5, 0, 2, 2]], [[0, 8, 9, 5], [6, 0, 9, 3], [6, 0, 9, 2]], [[0, 9, 3, 7], [8, 0, 2, 7], [0, 6, 2, 6]], [[3, 0, 9, 7], [2, 0, 3, 3], [0, 4, 2, 3]], [[0, 6, 9, 8], [3, 0, 7, 3], [2, 0, 5, 3]], [[0, 10, 6, 10], [0, 7, 5, 9], [0, 2, 2, 8]], [[0, 9, 8, 6], [7, 0, 8, 6], [3, 0, 6, 5]], [[0, 5, 10, 4], [0, 4, 9, 3], [5, 0, 8, 3]], [[0, 8, 7, 8], [4, 0, 7, 5], [0, 5, 7, 3]], [[0, 6, 8, 6], [2, 0, 7, 5], [0, 5, 7, 4]], [[6, 0, 8, 3], [6, 0, 8, 2], [3, 0, 8, 2]], [[0, 5, 4, 7], [3, 0, 3, 6], [0, 1, 2, 4]], [[5, 0, 8, 4], [4, 0, 6, 4], [2, 0, 5, 3]], [[0, 4, 7, 8], [2, 0, 5, 5], [2, 0, 5, 3]], [[8, 0, 8, 8], [7, 0, 7, 5], [0, 5, 6, 5]], [[0, 10, 4, 4], [0, 10, 3, 3], [5, 0, 3, 3]], [[0, 9, 1, 4], [0, 8, 1, 3], [0, 8, 1, 2]], [[0, 5, 5, 6], [7, 0, 4, 4], [0, 3, 3, 2]], [[6, 0, 3, 10], [4, 0, 3, 9], [0, 2, 2, 9]], [[0, 3, 5, 6], [2, 0, 4, 6], [0, 2, 3, 6]], [[0, 10, 8, 5], [0, 6, 6, 2], [3, 0, 5, 1]], [[0, 9, 8, 8], [0, 8, 4, 8], [0, 7, 3, 8]], [[0, 7, 3, 5], [2, 0, 3, 5], [2, 0, 3, 4]], [[0, 9, 5, 3], [4, 0, 4, 3], [3, 0, 4, 3]], [[10, 0, 9, 10], [5, 0, 4, 9], [0, 8, 4, 7]], [[0, 4, 8, 4], [0, 2, 6, 3], [0, 2, 4, 2]], [[0, 5, 2, 10], [0, 4, 2, 6], [0, 2, 1, 4]], [[0, 0, 0, 0]]]
